--- Job srcpm.gms Start 12/13/18 10:24:38 24.7.4 r58773 LEX-LEG x86 64bit/Linux
GAMS 24.7.4   Copyright (C) 1987-2016 GAMS Development. All rights reserved
Licensee: Remigijus Paulavicius, Single User License     S170731:0859AO-LNX
          Imperial College London, Dept. of Chemical Engineering    DC13449
          License for teaching and research at degree granting institutions
          remigijus.paulavicius@imperial.ac.uk                             
--- Starting compilation
--- srcpm.gms(216) 3 Mb
--- Starting execution: elapsed 0:00:00.002
--- srcpm.gms(212) 4 Mb
--- Generating LP model reflp
--- srcpm.gms(213) 4 Mb
---   27 rows  39 columns  156 non-zeroes
--- Executing CPLEX: elapsed 0:00:00.005

IBM ILOG CPLEX   24.7.4 r58773 Released Sep 19, 2016 LEG x86 64bit/Linux      
Cplex 12.6.3.0

*** Error Cannot open parameter file "/home/renigijus/gams/opt-mod-lib/gamslib/srcpm/cplex.opt"
*** Error Error code = 2; No such file or directory
Reading data...
Starting Cplex...
Space for names approximately 0.00 Mb
Use option 'names no' to turn use of names off
Tried aggregator 1 time.
LP Presolve eliminated 9 rows and 7 columns.
Aggregator did 1 substitutions.
Reduced LP has 17 rows, 31 columns, and 104 nonzeros.
Presolve time = 0.00 sec. (0.03 ticks)
Initializing dual steep norms . . .

Iteration log . . .
Iteration:     1   Scaled dual infeas =           128.000000
Iteration:     6   Dual objective     =             5.158209
LP status(1): optimal
Cplex Time: 0.00sec (det. 0.11 ticks)

Optimal solution found.
Objective :        1560.669168

--- Restarting execution
--- srcpm.gms(213) 2 Mb
--- Reading solution for model reflp
--- srcpm.gms(215) 3 Mb
--- Generating NLP model refnlp
--- srcpm.gms(216) 5 Mb
---   28 rows  40 columns  163 non-zeroes
---   24 nl-code  5 nl-non-zeroes
--- srcpm.gms(216) 3 Mb
--- Executing CONVERT: elapsed 0:00:00.028

Convert 2.0      24.7.4 r58773 Released Sep 19, 2016 LEG x86 64bit/Linux      

--- Using Option File
Reading parameter(s) from "/home/renigijus/gams/opt-mod-lib/gamslib/srcpm/convert.opt"
>>  ampl srcpm-scalar.mod
Finished reading from "/home/renigijus/gams/opt-mod-lib/gamslib/srcpm/convert.opt"
--- Writing Ampl      : srcpm-scalar.mod

--- Restarting execution
--- srcpm.gms(216) 2 Mb
--- Reading solution for model refnlp
*** Status: Normal completion
--- Job srcpm.gms Stop 12/13/18 10:24:38 elapsed 0:00:00.038
